(declare-fun bvlambda_13_ () (_ BitVec 1))
(declare-fun bvlambda_14_ () (_ BitVec 3))
(declare-fun bvlambda_17_ ()Bool         )
(declare-fun bvlambda_19_ () (_ BitVec 2))
(declare-fun bvlambda_61_ () (_ BitVec 4))
(declare-fun a152 () (Array (_ BitVec 1) (_ BitVec 5)))
(assert
(let (($e1 (_ bv0 1)))
(let (($e8 (_ bv28 7)))
(let (($e13 (_ bv0 6)))
(let (($e25 (_ bv0  5)))
(let (($e186 (concat bvlambda_19_ bvlambda_14_)))
(let (($e187 (store a152 $e1 $e186)))
(let (($e188 (store $e187 bvlambda_13_ $e25 )))
(let (($e189 (select $e188 true       )))
(let (($e190 (concat $e189 $e189)))
(let (($e459         $e13               ))
(let (($e467 (select $e187 bvlambda_17_)))
(let (($e468 (concat $e8 $e467)))
(let (($e591 (concat $e13  bvlambda_61_)))
(let (($e592 (concat $e591 $e1         )))
(let (($e593 (concat $e592 $e1         )))
(let (($e601 (concat $e1          bvlambda_14_)))
(let (($e602 (concat $e601 bvlambda_19_)))
(let (($e603 (concat $e602 $e1         )))
(let (($e604 (concat $e603 $e1         )))
(let (($e605 (concat $e604 $e1         )))
(let (($e606 (concat $e605 bvlambda_19_)))
(let (($e607 (concat $e606 $e1         )))
(let (($e609             $e607                ))
(let (($e613 ((_ extract 6 1) $e190)))
(let (($e614      (= $e602 $e613)        ))
(let (($e617         $e602              ))
(let (($e754      (bvult $e468 $e593)         ))
(let (($e756 (bvult        $e754  $e614)))
             (bvult        $e756  bvlambda_17_)
                                                                                                                                                                                                                                                                                                                                                                                                                                                                                                                                                                                                                                                                                                                                                                                                                                                                                                                                                                                                                                                                                                                                                                                                                                                                                                                                                                                                                                                                                                                                                                                                                                                                                                                                                                                                                                                                                                                                                                                                                                                                                                                                                                                                                                                                                                                                                                                                                                                                                       ) )                                                                                                                                        )  ))   ) )))))))       )))                                                                                                                          ))       )                                                                                                                                                                                                                                                                            )))))                                                             )           )    )      ))
